c colouring generated by benchmark framework
p edge 1000 246708
v 1 66
v 2 42
v 3 38
v 4 46
v 5 84
v 6 16
v 7 22
v 8 10
v 9 85
v 10 64
v 11 63
v 12 81
v 13 36
v 14 74
v 15 50
v 16 8
v 17 59
v 18 26
v 19 11
v 20 139
v 21 54
v 22 59
v 23 4
v 24 21
v 25 77
v 26 112
v 27 58
v 28 120
v 29 81
v 30 29
v 31 21
v 32 62
v 33 31
v 34 105
v 35 50
v 36 30
v 37 41
v 38 84
v 39 80
v 40 109
v 41 40
v 42 102
v 43 3
v 44 67
v 45 123
v 46 89
v 47 4
v 48 10
v 49 20
v 50 132
v 51 32
v 52 7
v 53 78
v 54 96
v 55 56
v 56 34
v 57 36
v 58 36
v 59 51
v 60 47
v 61 112
v 62 45
v 63 105
v 64 93
v 65 6
v 66 69
v 67 8
v 68 57
v 69 82
v 70 68
v 71 47
v 72 38
v 73 123
v 74 30
v 75 7
v 76 71
v 77 79
v 78 13
v 79 100
v 80 88
v 81 87
v 82 113
v 83 62
v 84 75
v 85 84
v 86 84
v 87 1
v 88 26
v 89 74
v 90 75
v 91 41
v 92 104
v 93 2
v 94 111
v 95 58
v 96 87
v 97 114
v 98 22
v 99 31
v 100 73
v 101 6
v 102 95
v 103 10
v 104 34
v 105 92
v 106 27
v 107 95
v 108 52
v 109 86
v 110 35
v 111 48
v 112 121
v 113 40
v 114 48
v 115 126
v 116 18
v 117 30
v 118 106
v 119 40
v 120 41
v 121 28
v 122 105
v 123 50
v 124 42
v 125 98
v 126 54
v 127 102
v 128 75
v 129 7
v 130 93
v 131 10
v 132 30
v 133 26
v 134 12
v 135 134
v 136 13
v 137 27
v 138 27
v 139 35
v 140 83
v 141 14
v 142 96
v 143 12
v 144 14
v 145 13
v 146 8
v 147 17
v 148 21
v 149 72
v 150 75
v 151 90
v 152 12
v 153 110
v 154 53
v 155 105
v 156 58
v 157 4
v 158 68
v 159 97
v 160 80
v 161 16
v 162 50
v 163 61
v 164 130
v 165 62
v 166 56
v 167 120
v 168 69
v 169 35
v 170 1
v 171 43
v 172 4
v 173 41
v 174 14
v 175 43
v 176 35
v 177 9
v 178 66
v 179 108
v 180 93
v 181 51
v 182 84
v 183 29
v 184 98
v 185 6
v 186 55
v 187 72
v 188 42
v 189 103
v 190 64
v 191 135
v 192 23
v 193 13
v 194 63
v 195 38
v 196 72
v 197 99
v 198 18
v 199 17
v 200 43
v 201 110
v 202 67
v 203 117
v 204 88
v 205 107
v 206 13
v 207 89
v 208 71
v 209 70
v 210 28
v 211 29
v 212 102
v 213 10
v 214 56
v 215 21
v 216 25
v 217 24
v 218 94
v 219 11
v 220 104
v 221 2
v 222 72
v 223 19
v 224 16
v 225 56
v 226 55
v 227 61
v 228 77
v 229 45
v 230 41
v 231 36
v 232 67
v 233 83
v 234 57
v 235 54
v 236 17
v 237 119
v 238 34
v 239 131
v 240 69
v 241 30
v 242 57
v 243 25
v 244 37
v 245 34
v 246 122
v 247 3
v 248 25
v 249 15
v 250 6
v 251 8
v 252 67
v 253 29
v 254 115
v 255 33
v 256 2
v 257 58
v 258 32
v 259 53
v 260 48
v 261 36
v 262 0
v 263 23
v 264 78
v 265 22
v 266 19
v 267 33
v 268 64
v 269 75
v 270 36
v 271 50
v 272 48
v 273 48
v 274 82
v 275 62
v 276 100
v 277 124
v 278 85
v 279 69
v 280 86
v 281 105
v 282 26
v 283 1
v 284 0
v 285 17
v 286 83
v 287 78
v 288 129
v 289 103
v 290 112
v 291 55
v 292 39
v 293 34
v 294 49
v 295 70
v 296 22
v 297 7
v 298 17
v 299 67
v 300 4
v 301 59
v 302 65
v 303 10
v 304 91
v 305 31
v 306 28
v 307 44
v 308 53
v 309 62
v 310 20
v 311 61
v 312 89
v 313 25
v 314 51
v 315 31
v 316 13
v 317 88
v 318 59
v 319 90
v 320 16
v 321 27
v 322 18
v 323 60
v 324 119
v 325 30
v 326 16
v 327 61
v 328 37
v 329 49
v 330 91
v 331 80
v 332 82
v 333 140
v 334 20
v 335 94
v 336 121
v 337 32
v 338 84
v 339 109
v 340 109
v 341 118
v 342 19
v 343 53
v 344 9
v 345 0
v 346 28
v 347 36
v 348 114
v 349 33
v 350 73
v 351 82
v 352 7
v 353 131
v 354 79
v 355 69
v 356 50
v 357 5
v 358 73
v 359 1
v 360 22
v 361 79
v 362 106
v 363 26
v 364 38
v 365 12
v 366 43
v 367 1
v 368 86
v 369 135
v 370 87
v 371 108
v 372 104
v 373 53
v 374 55
v 375 68
v 376 65
v 377 77
v 378 82
v 379 31
v 380 68
v 381 76
v 382 105
v 383 85
v 384 60
v 385 1
v 386 49
v 387 66
v 388 32
v 389 9
v 390 6
v 391 128
v 392 86
v 393 97
v 394 85
v 395 47
v 396 42
v 397 101
v 398 2
v 399 19
v 400 104
v 401 117
v 402 131
v 403 20
v 404 63
v 405 52
v 406 14
v 407 80
v 408 80
v 409 77
v 410 67
v 411 73
v 412 134
v 413 139
v 414 106
v 415 26
v 416 92
v 417 63
v 418 46
v 419 68
v 420 48
v 421 75
v 422 57
v 423 25
v 424 63
v 425 89
v 426 81
v 427 106
v 428 27
v 429 47
v 430 80
v 431 17
v 432 93
v 433 21
v 434 98
v 435 79
v 436 45
v 437 16
v 438 18
v 439 57
v 440 14
v 441 74
v 442 122
v 443 54
v 444 82
v 445 50
v 446 110
v 447 118
v 448 41
v 449 53
v 450 122
v 451 59
v 452 20
v 453 6
v 454 113
v 455 81
v 456 79
v 457 88
v 458 120
v 459 27
v 460 119
v 461 69
v 462 8
v 463 30
v 464 14
v 465 92
v 466 24
v 467 125
v 468 80
v 469 34
v 470 13
v 471 26
v 472 79
v 473 97
v 474 4
v 475 52
v 476 24
v 477 138
v 478 124
v 479 127
v 480 113
v 481 6
v 482 99
v 483 17
v 484 90
v 485 29
v 486 135
v 487 20
v 488 58
v 489 22
v 490 101
v 491 99
v 492 37
v 493 128
v 494 102
v 495 19
v 496 2
v 497 45
v 498 38
v 499 87
v 500 15
v 501 5
v 502 5
v 503 70
v 504 27
v 505 15
v 506 0
v 507 104
v 508 11
v 509 56
v 510 90
v 511 60
v 512 33
v 513 43
v 514 5
v 515 48
v 516 52
v 517 65
v 518 1
v 519 111
v 520 41
v 521 71
v 522 38
v 523 28
v 524 10
v 525 128
v 526 8
v 527 112
v 528 31
v 529 42
v 530 130
v 531 93
v 532 133
v 533 13
v 534 114
v 535 36
v 536 132
v 537 33
v 538 44
v 539 85
v 540 97
v 541 100
v 542 19
v 543 108
v 544 17
v 545 126
v 546 100
v 547 95
v 548 2
v 549 88
v 550 19
v 551 99
v 552 16
v 553 108
v 554 58
v 555 83
v 556 27
v 557 113
v 558 45
v 559 92
v 560 65
v 561 53
v 562 136
v 563 1
v 564 5
v 565 57
v 566 8
v 567 21
v 568 46
v 569 121
v 570 61
v 571 94
v 572 71
v 573 104
v 574 97
v 575 39
v 576 77
v 577 49
v 578 102
v 579 93
v 580 82
v 581 118
v 582 40
v 583 14
v 584 66
v 585 12
v 586 11
v 587 117
v 588 70
v 589 1
v 590 49
v 591 23
v 592 44
v 593 119
v 594 23
v 595 94
v 596 5
v 597 2
v 598 49
v 599 23
v 600 38
v 601 66
v 602 56
v 603 70
v 604 60
v 605 66
v 606 23
v 607 39
v 608 60
v 609 90
v 610 94
v 611 47
v 612 96
v 613 56
v 614 79
v 615 9
v 616 141
v 617 57
v 618 54
v 619 82
v 620 52
v 621 35
v 622 40
v 623 8
v 624 128
v 625 7
v 626 86
v 627 12
v 628 94
v 629 60
v 630 78
v 631 137
v 632 63
v 633 103
v 634 33
v 635 23
v 636 60
v 637 49
v 638 103
v 639 55
v 640 78
v 641 140
v 642 99
v 643 22
v 644 47
v 645 25
v 646 64
v 647 64
v 648 29
v 649 87
v 650 91
v 651 28
v 652 20
v 653 33
v 654 107
v 655 65
v 656 75
v 657 111
v 658 74
v 659 31
v 660 54
v 661 76
v 662 18
v 663 126
v 664 63
v 665 129
v 666 89
v 667 29
v 668 116
v 669 41
v 670 36
v 671 116
v 672 57
v 673 52
v 674 65
v 675 13
v 676 24
v 677 94
v 678 110
v 679 37
v 680 32
v 681 59
v 682 4
v 683 24
v 684 44
v 685 20
v 686 95
v 687 37
v 688 40
v 689 33
v 690 115
v 691 73
v 692 42
v 693 49
v 694 0
v 695 18
v 696 77
v 697 47
v 698 15
v 699 109
v 700 1
v 701 3
v 702 95
v 703 10
v 704 51
v 705 101
v 706 11
v 707 51
v 708 26
v 709 82
v 710 9
v 711 8
v 712 5
v 713 35
v 714 24
v 715 116
v 716 4
v 717 39
v 718 122
v 719 43
v 720 100
v 721 28
v 722 52
v 723 18
v 724 35
v 725 85
v 726 109
v 727 9
v 728 45
v 729 90
v 730 72
v 731 26
v 732 60
v 733 52
v 734 118
v 735 107
v 736 47
v 737 28
v 738 85
v 739 124
v 740 44
v 741 12
v 742 18
v 743 96
v 744 136
v 745 88
v 746 49
v 747 87
v 748 100
v 749 51
v 750 30
v 751 29
v 752 99
v 753 21
v 754 23
v 755 28
v 756 28
v 757 68
v 758 69
v 759 88
v 760 46
v 761 46
v 762 125
v 763 39
v 764 64
v 765 22
v 766 89
v 767 50
v 768 44
v 769 53
v 770 98
v 771 58
v 772 0
v 773 55
v 774 76
v 775 98
v 776 19
v 777 44
v 778 112
v 779 62
v 780 66
v 781 18
v 782 137
v 783 70
v 784 53
v 785 95
v 786 27
v 787 50
v 788 74
v 789 73
v 790 71
v 791 92
v 792 101
v 793 76
v 794 69
v 795 68
v 796 70
v 797 77
v 798 71
v 799 1
v 800 56
v 801 67
v 802 57
v 803 7
v 804 37
v 805 126
v 806 3
v 807 39
v 808 45
v 809 81
v 810 53
v 811 2
v 812 138
v 813 111
v 814 61
v 815 136
v 816 11
v 817 127
v 818 71
v 819 54
v 820 59
v 821 72
v 822 4
v 823 123
v 824 120
v 825 90
v 826 55
v 827 0
v 828 3
v 829 11
v 830 83
v 831 78
v 832 14
v 833 112
v 834 84
v 835 81
v 836 113
v 837 64
v 838 14
v 839 9
v 840 103
v 841 101
v 842 34
v 843 46
v 844 109
v 845 107
v 846 48
v 847 6
v 848 40
v 849 76
v 850 140
v 851 37
v 852 31
v 853 75
v 854 74
v 855 77
v 856 93
v 857 35
v 858 19
v 859 119
v 860 78
v 861 21
v 862 0
v 863 11
v 864 74
v 865 22
v 866 37
v 867 137
v 868 64
v 869 78
v 870 109
v 871 3
v 872 115
v 873 54
v 874 41
v 875 58
v 876 104
v 877 15
v 878 116
v 879 120
v 880 42
v 881 98
v 882 17
v 883 11
v 884 35
v 885 63
v 886 71
v 887 33
v 888 83
v 889 15
v 890 73
v 891 3
v 892 44
v 893 2
v 894 15
v 895 83
v 896 66
v 897 125
v 898 24
v 899 114
v 900 31
v 901 3
v 902 23
v 903 97
v 904 38
v 905 92
v 906 115
v 907 141
v 908 91
v 909 119
v 910 60
v 911 109
v 912 8
v 913 26
v 914 84
v 915 5
v 916 15
v 917 102
v 918 15
v 919 92
v 920 52
v 921 34
v 922 38
v 923 72
v 924 5
v 925 9
v 926 81
v 927 24
v 928 73
v 929 51
v 930 6
v 931 107
v 932 76
v 933 68
v 934 55
v 935 32
v 936 127
v 937 94
v 938 61
v 939 74
v 940 61
v 941 46
v 942 25
v 943 72
v 944 88
v 945 7
v 946 96
v 947 132
v 948 18
v 949 71
v 950 100
v 951 20
v 952 45
v 953 9
v 954 39
v 955 77
v 956 6
v 957 101
v 958 10
v 959 43
v 960 114
v 961 39
v 962 139
v 963 93
v 964 12
v 965 133
v 966 30
v 967 108
v 968 101
v 969 11
v 970 96
v 971 47
v 972 40
v 973 39
v 974 110
v 975 44
v 976 77
v 977 16
v 978 43
v 979 0
v 980 32
v 981 65
v 982 23
v 983 62
v 984 110
v 985 120
v 986 91
v 987 32
v 988 41
v 989 62
v 990 58
v 991 59
v 992 86
v 993 46
v 994 106
v 995 45
v 996 27
v 997 89
v 998 133
v 999 70
v 1000 24
